p cnf 232 1739
17 0
122 0
195 0
68 0
133 0
110 0
-1 -73 0
-2 -74 0
-3 -75 0
-4 -76 0
-5 -77 0
-6 -78 0
-7 -79 0
-8 -80 0
-1 -201 0
-2 -202 0
-3 -203 0
-4 -204 0
-5 -205 0
-6 -206 0
-7 -207 0
-8 -208 0
-1 -161 0
-2 -162 0
-3 -163 0
-4 -164 0
-5 -165 0
-6 -166 0
-7 -167 0
-8 -168 0
-1 -97 0
-2 -98 0
-3 -99 0
-4 -100 0
-5 -101 0
-6 -102 0
-7 -103 0
-8 -104 0
-1 -25 0
-2 -26 0
-3 -27 0
-4 -28 0
-5 -29 0
-6 -30 0
-7 -31 0
-8 -32 0
-1 -129 0
-2 -130 0
-3 -131 0
-4 -132 0
-5 -133 0
-6 -134 0
-7 -135 0
-8 -136 0
-1 -209 0
-2 -210 0
-3 -211 0
-4 -212 0
-5 -213 0
-6 -214 0
-7 -215 0
-8 -216 0
-1 -137 0
-2 -138 0
-3 -139 0
-4 -140 0
-5 -141 0
-6 -142 0
-7 -143 0
-8 -144 0
-1 -193 0
-2 -194 0
-3 -195 0
-4 -196 0
-5 -197 0
-6 -198 0
-7 -199 0
-8 -200 0
-1 -33 0
-2 -34 0
-3 -35 0
-4 -36 0
-5 -37 0
-6 -38 0
-7 -39 0
-8 -40 0
-1 -145 0
-2 -146 0
-3 -147 0
-4 -148 0
-5 -149 0
-6 -150 0
-7 -151 0
-8 -152 0
-1 -225 0
-2 -226 0
-3 -227 0
-4 -228 0
-5 -229 0
-6 -230 0
-7 -231 0
-8 -232 0
-1 -89 0
-2 -90 0
-3 -91 0
-4 -92 0
-5 -93 0
-6 -94 0
-7 -95 0
-8 -96 0
-1 -17 0
-2 -18 0
-3 -19 0
-4 -20 0
-5 -21 0
-6 -22 0
-7 -23 0
-8 -24 0
-9 -169 0
-10 -170 0
-11 -171 0
-12 -172 0
-13 -173 0
-14 -174 0
-15 -175 0
-16 -176 0
-9 -41 0
-10 -42 0
-11 -43 0
-12 -44 0
-13 -45 0
-14 -46 0
-15 -47 0
-16 -48 0
-9 -185 0
-10 -186 0
-11 -187 0
-12 -188 0
-13 -189 0
-14 -190 0
-15 -191 0
-16 -192 0
-9 -65 0
-10 -66 0
-11 -67 0
-12 -68 0
-13 -69 0
-14 -70 0
-15 -71 0
-16 -72 0
-9 -177 0
-10 -178 0
-11 -179 0
-12 -180 0
-13 -181 0
-14 -182 0
-15 -183 0
-16 -184 0
-9 -57 0
-10 -58 0
-11 -59 0
-12 -60 0
-13 -61 0
-14 -62 0
-15 -63 0
-16 -64 0
-9 -217 0
-10 -218 0
-11 -219 0
-12 -220 0
-13 -221 0
-14 -222 0
-15 -223 0
-16 -224 0
-9 -73 0
-10 -74 0
-11 -75 0
-12 -76 0
-13 -77 0
-14 -78 0
-15 -79 0
-16 -80 0
-9 -153 0
-10 -154 0
-11 -155 0
-12 -156 0
-13 -157 0
-14 -158 0
-15 -159 0
-16 -160 0
-9 -81 0
-10 -82 0
-11 -83 0
-12 -84 0
-13 -85 0
-14 -86 0
-15 -87 0
-16 -88 0
-9 -113 0
-10 -114 0
-11 -115 0
-12 -116 0
-13 -117 0
-14 -118 0
-15 -119 0
-16 -120 0
-9 -201 0
-10 -202 0
-11 -203 0
-12 -204 0
-13 -205 0
-14 -206 0
-15 -207 0
-16 -208 0
-9 -209 0
-10 -210 0
-11 -211 0
-12 -212 0
-13 -213 0
-14 -214 0
-15 -215 0
-16 -216 0
-9 -33 0
-10 -34 0
-11 -35 0
-12 -36 0
-13 -37 0
-14 -38 0
-15 -39 0
-16 -40 0
-17 -65 0
-18 -66 0
-19 -67 0
-20 -68 0
-21 -69 0
-22 -70 0
-23 -71 0
-24 -72 0
-17 -49 0
-18 -50 0
-19 -51 0
-20 -52 0
-21 -53 0
-22 -54 0
-23 -55 0
-24 -56 0
-17 -201 0
-18 -202 0
-19 -203 0
-20 -204 0
-21 -205 0
-22 -206 0
-23 -207 0
-24 -208 0
-17 -161 0
-18 -162 0
-19 -163 0
-20 -164 0
-21 -165 0
-22 -166 0
-23 -167 0
-24 -168 0
-17 -97 0
-18 -98 0
-19 -99 0
-20 -100 0
-21 -101 0
-22 -102 0
-23 -103 0
-24 -104 0
-17 -25 0
-18 -26 0
-19 -27 0
-20 -28 0
-21 -29 0
-22 -30 0
-23 -31 0
-24 -32 0
-17 -129 0
-18 -130 0
-19 -131 0
-20 -132 0
-21 -133 0
-22 -134 0
-23 -135 0
-24 -136 0
-17 -121 0
-18 -122 0
-19 -123 0
-20 -124 0
-21 -125 0
-22 -126 0
-23 -127 0
-24 -128 0
-17 -137 0
-18 -138 0
-19 -139 0
-20 -140 0
-21 -141 0
-22 -142 0
-23 -143 0
-24 -144 0
-17 -193 0
-18 -194 0
-19 -195 0
-20 -196 0
-21 -197 0
-22 -198 0
-23 -199 0
-24 -200 0
-17 -105 0
-18 -106 0
-19 -107 0
-20 -108 0
-21 -109 0
-22 -110 0
-23 -111 0
-24 -112 0
-17 -145 0
-18 -146 0
-19 -147 0
-20 -148 0
-21 -149 0
-22 -150 0
-23 -151 0
-24 -152 0
-17 -225 0
-18 -226 0
-19 -227 0
-20 -228 0
-21 -229 0
-22 -230 0
-23 -231 0
-24 -232 0
-17 -89 0
-18 -90 0
-19 -91 0
-20 -92 0
-21 -93 0
-22 -94 0
-23 -95 0
-24 -96 0
-25 -169 0
-26 -170 0
-27 -171 0
-28 -172 0
-29 -173 0
-30 -174 0
-31 -175 0
-32 -176 0
-25 -41 0
-26 -42 0
-27 -43 0
-28 -44 0
-29 -45 0
-30 -46 0
-31 -47 0
-32 -48 0
-25 -185 0
-26 -186 0
-27 -187 0
-28 -188 0
-29 -189 0
-30 -190 0
-31 -191 0
-32 -192 0
-25 -65 0
-26 -66 0
-27 -67 0
-28 -68 0
-29 -69 0
-30 -70 0
-31 -71 0
-32 -72 0
-25 -177 0
-26 -178 0
-27 -179 0
-28 -180 0
-29 -181 0
-30 -182 0
-31 -183 0
-32 -184 0
-25 -201 0
-26 -202 0
-27 -203 0
-28 -204 0
-29 -205 0
-30 -206 0
-31 -207 0
-32 -208 0
-25 -161 0
-26 -162 0
-27 -163 0
-28 -164 0
-29 -165 0
-30 -166 0
-31 -167 0
-32 -168 0
-25 -97 0
-26 -98 0
-27 -99 0
-28 -100 0
-29 -101 0
-30 -102 0
-31 -103 0
-32 -104 0
-25 -129 0
-26 -130 0
-27 -131 0
-28 -132 0
-29 -133 0
-30 -134 0
-31 -135 0
-32 -136 0
-25 -209 0
-26 -210 0
-27 -211 0
-28 -212 0
-29 -213 0
-30 -214 0
-31 -215 0
-32 -216 0
-25 -193 0
-26 -194 0
-27 -195 0
-28 -196 0
-29 -197 0
-30 -198 0
-31 -199 0
-32 -200 0
-25 -105 0
-26 -106 0
-27 -107 0
-28 -108 0
-29 -109 0
-30 -110 0
-31 -111 0
-32 -112 0
-33 -185 0
-34 -186 0
-35 -187 0
-36 -188 0
-37 -189 0
-38 -190 0
-39 -191 0
-40 -192 0
-33 -57 0
-34 -58 0
-35 -59 0
-36 -60 0
-37 -61 0
-38 -62 0
-39 -63 0
-40 -64 0
-33 -217 0
-34 -218 0
-35 -219 0
-36 -220 0
-37 -221 0
-38 -222 0
-39 -223 0
-40 -224 0
-33 -73 0
-34 -74 0
-35 -75 0
-36 -76 0
-37 -77 0
-38 -78 0
-39 -79 0
-40 -80 0
-33 -153 0
-34 -154 0
-35 -155 0
-36 -156 0
-37 -157 0
-38 -158 0
-39 -159 0
-40 -160 0
-33 -201 0
-34 -202 0
-35 -203 0
-36 -204 0
-37 -205 0
-38 -206 0
-39 -207 0
-40 -208 0
-33 -161 0
-34 -162 0
-35 -163 0
-36 -164 0
-37 -165 0
-38 -166 0
-39 -167 0
-40 -168 0
-33 -97 0
-34 -98 0
-35 -99 0
-36 -100 0
-37 -101 0
-38 -102 0
-39 -103 0
-40 -104 0
-33 -209 0
-34 -210 0
-35 -211 0
-36 -212 0
-37 -213 0
-38 -214 0
-39 -215 0
-40 -216 0
-33 -145 0
-34 -146 0
-35 -147 0
-36 -148 0
-37 -149 0
-38 -150 0
-39 -151 0
-40 -152 0
-33 -225 0
-34 -226 0
-35 -227 0
-36 -228 0
-37 -229 0
-38 -230 0
-39 -231 0
-40 -232 0
-33 -89 0
-34 -90 0
-35 -91 0
-36 -92 0
-37 -93 0
-38 -94 0
-39 -95 0
-40 -96 0
-41 -169 0
-42 -170 0
-43 -171 0
-44 -172 0
-45 -173 0
-46 -174 0
-47 -175 0
-48 -176 0
-41 -185 0
-42 -186 0
-43 -187 0
-44 -188 0
-45 -189 0
-46 -190 0
-47 -191 0
-48 -192 0
-41 -65 0
-42 -66 0
-43 -67 0
-44 -68 0
-45 -69 0
-46 -70 0
-47 -71 0
-48 -72 0
-41 -177 0
-42 -178 0
-43 -179 0
-44 -180 0
-45 -181 0
-46 -182 0
-47 -183 0
-48 -184 0
-41 -113 0
-42 -114 0
-43 -115 0
-44 -116 0
-45 -117 0
-46 -118 0
-47 -119 0
-48 -120 0
-41 -57 0
-42 -58 0
-43 -59 0
-44 -60 0
-45 -61 0
-46 -62 0
-47 -63 0
-48 -64 0
-41 -217 0
-42 -218 0
-43 -219 0
-44 -220 0
-45 -221 0
-46 -222 0
-47 -223 0
-48 -224 0
-41 -81 0
-42 -82 0
-43 -83 0
-44 -84 0
-45 -85 0
-46 -86 0
-47 -87 0
-48 -88 0
-41 -201 0
-42 -202 0
-43 -203 0
-44 -204 0
-45 -205 0
-46 -206 0
-47 -207 0
-48 -208 0
-41 -129 0
-42 -130 0
-43 -131 0
-44 -132 0
-45 -133 0
-46 -134 0
-47 -135 0
-48 -136 0
-41 -209 0
-42 -210 0
-43 -211 0
-44 -212 0
-45 -213 0
-46 -214 0
-47 -215 0
-48 -216 0
-41 -121 0
-42 -122 0
-43 -123 0
-44 -124 0
-45 -125 0
-46 -126 0
-47 -127 0
-48 -128 0
-41 -105 0
-42 -106 0
-43 -107 0
-44 -108 0
-45 -109 0
-46 -110 0
-47 -111 0
-48 -112 0
-49 -177 0
-50 -178 0
-51 -179 0
-52 -180 0
-53 -181 0
-54 -182 0
-55 -183 0
-56 -184 0
-49 -217 0
-50 -218 0
-51 -219 0
-52 -220 0
-53 -221 0
-54 -222 0
-55 -223 0
-56 -224 0
-49 -73 0
-50 -74 0
-51 -75 0
-52 -76 0
-53 -77 0
-54 -78 0
-55 -79 0
-56 -80 0
-49 -153 0
-50 -154 0
-51 -155 0
-52 -156 0
-53 -157 0
-54 -158 0
-55 -159 0
-56 -160 0
-49 -81 0
-50 -82 0
-51 -83 0
-52 -84 0
-53 -85 0
-54 -86 0
-55 -87 0
-56 -88 0
-49 -121 0
-50 -122 0
-51 -123 0
-52 -124 0
-53 -125 0
-54 -126 0
-55 -127 0
-56 -128 0
-49 -137 0
-50 -138 0
-51 -139 0
-52 -140 0
-53 -141 0
-54 -142 0
-55 -143 0
-56 -144 0
-49 -225 0
-50 -226 0
-51 -227 0
-52 -228 0
-53 -229 0
-54 -230 0
-55 -231 0
-56 -232 0
-49 -113 0
-50 -114 0
-51 -115 0
-52 -116 0
-53 -117 0
-54 -118 0
-55 -119 0
-56 -120 0
-49 -193 0
-50 -194 0
-51 -195 0
-52 -196 0
-53 -197 0
-54 -198 0
-55 -199 0
-56 -200 0
-49 -105 0
-50 -106 0
-51 -107 0
-52 -108 0
-53 -109 0
-54 -110 0
-55 -111 0
-56 -112 0
-49 -145 0
-50 -146 0
-51 -147 0
-52 -148 0
-53 -149 0
-54 -150 0
-55 -151 0
-56 -152 0
-49 -89 0
-50 -90 0
-51 -91 0
-52 -92 0
-53 -93 0
-54 -94 0
-55 -95 0
-56 -96 0
-57 -169 0
-58 -170 0
-59 -171 0
-60 -172 0
-61 -173 0
-62 -174 0
-63 -175 0
-64 -176 0
-57 -185 0
-58 -186 0
-59 -187 0
-60 -188 0
-61 -189 0
-62 -190 0
-63 -191 0
-64 -192 0
-57 -217 0
-58 -218 0
-59 -219 0
-60 -220 0
-61 -221 0
-62 -222 0
-63 -223 0
-64 -224 0
-57 -73 0
-58 -74 0
-59 -75 0
-60 -76 0
-61 -77 0
-62 -78 0
-63 -79 0
-64 -80 0
-57 -209 0
-58 -210 0
-59 -211 0
-60 -212 0
-61 -213 0
-62 -214 0
-63 -215 0
-64 -216 0
-57 -153 0
-58 -154 0
-59 -155 0
-60 -156 0
-61 -157 0
-62 -158 0
-63 -159 0
-64 -160 0
-57 -81 0
-58 -82 0
-59 -83 0
-60 -84 0
-61 -85 0
-62 -86 0
-63 -87 0
-64 -88 0
-57 -113 0
-58 -114 0
-59 -115 0
-60 -116 0
-61 -117 0
-62 -118 0
-63 -119 0
-64 -120 0
-57 -201 0
-58 -202 0
-59 -203 0
-60 -204 0
-61 -205 0
-62 -206 0
-63 -207 0
-64 -208 0
-57 -161 0
-58 -162 0
-59 -163 0
-60 -164 0
-61 -165 0
-62 -166 0
-63 -167 0
-64 -168 0
-57 -145 0
-58 -146 0
-59 -147 0
-60 -148 0
-61 -149 0
-62 -150 0
-63 -151 0
-64 -152 0
-57 -225 0
-58 -226 0
-59 -227 0
-60 -228 0
-61 -229 0
-62 -230 0
-63 -231 0
-64 -232 0
-65 -169 0
-66 -170 0
-67 -171 0
-68 -172 0
-69 -173 0
-70 -174 0
-71 -175 0
-72 -176 0
-65 -185 0
-66 -186 0
-67 -187 0
-68 -188 0
-69 -189 0
-70 -190 0
-71 -191 0
-72 -192 0
-65 -177 0
-66 -178 0
-67 -179 0
-68 -180 0
-69 -181 0
-70 -182 0
-71 -183 0
-72 -184 0
-65 -129 0
-66 -130 0
-67 -131 0
-68 -132 0
-69 -133 0
-70 -134 0
-71 -135 0
-72 -136 0
-65 -105 0
-66 -106 0
-67 -107 0
-68 -108 0
-69 -109 0
-70 -110 0
-71 -111 0
-72 -112 0
-65 -81 0
-66 -82 0
-67 -83 0
-68 -84 0
-69 -85 0
-70 -86 0
-71 -87 0
-72 -88 0
-65 -113 0
-66 -114 0
-67 -115 0
-68 -116 0
-69 -117 0
-70 -118 0
-71 -119 0
-72 -120 0
-65 -201 0
-66 -202 0
-67 -203 0
-68 -204 0
-69 -205 0
-70 -206 0
-71 -207 0
-72 -208 0
-65 -97 0
-66 -98 0
-67 -99 0
-68 -100 0
-69 -101 0
-70 -102 0
-71 -103 0
-72 -104 0
-65 -121 0
-66 -122 0
-67 -123 0
-68 -124 0
-69 -125 0
-70 -126 0
-71 -127 0
-72 -128 0
-65 -193 0
-66 -194 0
-67 -195 0
-68 -196 0
-69 -197 0
-70 -198 0
-71 -199 0
-72 -200 0
-73 -185 0
-74 -186 0
-75 -187 0
-76 -188 0
-77 -189 0
-78 -190 0
-79 -191 0
-80 -192 0
-73 -217 0
-74 -218 0
-75 -219 0
-76 -220 0
-77 -221 0
-78 -222 0
-79 -223 0
-80 -224 0
-73 -153 0
-74 -154 0
-75 -155 0
-76 -156 0
-77 -157 0
-78 -158 0
-79 -159 0
-80 -160 0
-73 -145 0
-74 -146 0
-75 -147 0
-76 -148 0
-77 -149 0
-78 -150 0
-79 -151 0
-80 -152 0
-73 -225 0
-74 -226 0
-75 -227 0
-76 -228 0
-77 -229 0
-78 -230 0
-79 -231 0
-80 -232 0
-73 -81 0
-74 -82 0
-75 -83 0
-76 -84 0
-77 -85 0
-78 -86 0
-79 -87 0
-80 -88 0
-73 -113 0
-74 -114 0
-75 -115 0
-76 -116 0
-77 -117 0
-78 -118 0
-79 -119 0
-80 -120 0
-73 -161 0
-74 -162 0
-75 -163 0
-76 -164 0
-77 -165 0
-78 -166 0
-79 -167 0
-80 -168 0
-73 -209 0
-74 -210 0
-75 -211 0
-76 -212 0
-77 -213 0
-78 -214 0
-79 -215 0
-80 -216 0
-73 -137 0
-74 -138 0
-75 -139 0
-76 -140 0
-77 -141 0
-78 -142 0
-79 -143 0
-80 -144 0
-73 -89 0
-74 -90 0
-75 -91 0
-76 -92 0
-77 -93 0
-78 -94 0
-79 -95 0
-80 -96 0
-81 -177 0
-82 -178 0
-83 -179 0
-84 -180 0
-85 -181 0
-86 -182 0
-87 -183 0
-88 -184 0
-81 -217 0
-82 -218 0
-83 -219 0
-84 -220 0
-85 -221 0
-86 -222 0
-87 -223 0
-88 -224 0
-81 -153 0
-82 -154 0
-83 -155 0
-84 -156 0
-85 -157 0
-86 -158 0
-87 -159 0
-88 -160 0
-81 -113 0
-82 -114 0
-83 -115 0
-84 -116 0
-85 -117 0
-86 -118 0
-87 -119 0
-88 -120 0
-81 -121 0
-82 -122 0
-83 -123 0
-84 -124 0
-85 -125 0
-86 -126 0
-87 -127 0
-88 -128 0
-81 -137 0
-82 -138 0
-83 -139 0
-84 -140 0
-85 -141 0
-86 -142 0
-87 -143 0
-88 -144 0
-81 -193 0
-82 -194 0
-83 -195 0
-84 -196 0
-85 -197 0
-86 -198 0
-87 -199 0
-88 -200 0
-81 -105 0
-82 -106 0
-83 -107 0
-84 -108 0
-85 -109 0
-86 -110 0
-87 -111 0
-88 -112 0
-81 -225 0
-82 -226 0
-83 -227 0
-84 -228 0
-85 -229 0
-86 -230 0
-87 -231 0
-88 -232 0
-89 -153 0
-90 -154 0
-91 -155 0
-92 -156 0
-93 -157 0
-94 -158 0
-95 -159 0
-96 -160 0
-89 -161 0
-90 -162 0
-91 -163 0
-92 -164 0
-93 -165 0
-94 -166 0
-95 -167 0
-96 -168 0
-89 -97 0
-90 -98 0
-91 -99 0
-92 -100 0
-93 -101 0
-94 -102 0
-95 -103 0
-96 -104 0
-89 -129 0
-90 -130 0
-91 -131 0
-92 -132 0
-93 -133 0
-94 -134 0
-95 -135 0
-96 -136 0
-89 -121 0
-90 -122 0
-91 -123 0
-92 -124 0
-93 -125 0
-94 -126 0
-95 -127 0
-96 -128 0
-89 -137 0
-90 -138 0
-91 -139 0
-92 -140 0
-93 -141 0
-94 -142 0
-95 -143 0
-96 -144 0
-89 -193 0
-90 -194 0
-91 -195 0
-92 -196 0
-93 -197 0
-94 -198 0
-95 -199 0
-96 -200 0
-89 -145 0
-90 -146 0
-91 -147 0
-92 -148 0
-93 -149 0
-94 -150 0
-95 -151 0
-96 -152 0
-89 -225 0
-90 -226 0
-91 -227 0
-92 -228 0
-93 -229 0
-94 -230 0
-95 -231 0
-96 -232 0
-97 -169 0
-98 -170 0
-99 -171 0
-100 -172 0
-101 -173 0
-102 -174 0
-103 -175 0
-104 -176 0
-97 -185 0
-98 -186 0
-99 -187 0
-100 -188 0
-101 -189 0
-102 -190 0
-103 -191 0
-104 -192 0
-97 -201 0
-98 -202 0
-99 -203 0
-100 -204 0
-101 -205 0
-102 -206 0
-103 -207 0
-104 -208 0
-97 -161 0
-98 -162 0
-99 -163 0
-100 -164 0
-101 -165 0
-102 -166 0
-103 -167 0
-104 -168 0
-97 -129 0
-98 -130 0
-99 -131 0
-100 -132 0
-101 -133 0
-102 -134 0
-103 -135 0
-104 -136 0
-97 -209 0
-98 -210 0
-99 -211 0
-100 -212 0
-101 -213 0
-102 -214 0
-103 -215 0
-104 -216 0
-97 -137 0
-98 -138 0
-99 -139 0
-100 -140 0
-101 -141 0
-102 -142 0
-103 -143 0
-104 -144 0
-97 -193 0
-98 -194 0
-99 -195 0
-100 -196 0
-101 -197 0
-102 -198 0
-103 -199 0
-104 -200 0
-97 -105 0
-98 -106 0
-99 -107 0
-100 -108 0
-101 -109 0
-102 -110 0
-103 -111 0
-104 -112 0
-97 -145 0
-98 -146 0
-99 -147 0
-100 -148 0
-101 -149 0
-102 -150 0
-103 -151 0
-104 -152 0
-105 -169 0
-106 -170 0
-107 -171 0
-108 -172 0
-109 -173 0
-110 -174 0
-111 -175 0
-112 -176 0
-105 -177 0
-106 -178 0
-107 -179 0
-108 -180 0
-109 -181 0
-110 -182 0
-111 -183 0
-112 -184 0
-105 -113 0
-106 -114 0
-107 -115 0
-108 -116 0
-109 -117 0
-110 -118 0
-111 -119 0
-112 -120 0
-105 -129 0
-106 -130 0
-107 -131 0
-108 -132 0
-109 -133 0
-110 -134 0
-111 -135 0
-112 -136 0
-105 -121 0
-106 -122 0
-107 -123 0
-108 -124 0
-109 -125 0
-110 -126 0
-111 -127 0
-112 -128 0
-105 -137 0
-106 -138 0
-107 -139 0
-108 -140 0
-109 -141 0
-110 -142 0
-111 -143 0
-112 -144 0
-105 -193 0
-106 -194 0
-107 -195 0
-108 -196 0
-109 -197 0
-110 -198 0
-111 -199 0
-112 -200 0
-113 -169 0
-114 -170 0
-115 -171 0
-116 -172 0
-117 -173 0
-118 -174 0
-119 -175 0
-120 -176 0
-113 -185 0
-114 -186 0
-115 -187 0
-116 -188 0
-117 -189 0
-118 -190 0
-119 -191 0
-120 -192 0
-113 -177 0
-114 -178 0
-115 -179 0
-116 -180 0
-117 -181 0
-118 -182 0
-119 -183 0
-120 -184 0
-113 -217 0
-114 -218 0
-115 -219 0
-116 -220 0
-117 -221 0
-118 -222 0
-119 -223 0
-120 -224 0
-113 -153 0
-114 -154 0
-115 -155 0
-116 -156 0
-117 -157 0
-118 -158 0
-119 -159 0
-120 -160 0
-113 -121 0
-114 -122 0
-115 -123 0
-116 -124 0
-117 -125 0
-118 -126 0
-119 -127 0
-120 -128 0
-121 -177 0
-122 -178 0
-123 -179 0
-124 -180 0
-125 -181 0
-126 -182 0
-127 -183 0
-128 -184 0
-121 -217 0
-122 -218 0
-123 -219 0
-124 -220 0
-125 -221 0
-126 -222 0
-127 -223 0
-128 -224 0
-121 -153 0
-122 -154 0
-123 -155 0
-124 -156 0
-125 -157 0
-126 -158 0
-127 -159 0
-128 -160 0
-121 -129 0
-122 -130 0
-123 -131 0
-124 -132 0
-125 -133 0
-126 -134 0
-127 -135 0
-128 -136 0
-121 -137 0
-122 -138 0
-123 -139 0
-124 -140 0
-125 -141 0
-126 -142 0
-127 -143 0
-128 -144 0
-121 -193 0
-122 -194 0
-123 -195 0
-124 -196 0
-125 -197 0
-126 -198 0
-127 -199 0
-128 -200 0
-121 -225 0
-122 -226 0
-123 -227 0
-124 -228 0
-125 -229 0
-126 -230 0
-127 -231 0
-128 -232 0
-129 -169 0
-130 -170 0
-131 -171 0
-132 -172 0
-133 -173 0
-134 -174 0
-135 -175 0
-136 -176 0
-129 -177 0
-130 -178 0
-131 -179 0
-132 -180 0
-133 -181 0
-134 -182 0
-135 -183 0
-136 -184 0
-129 -201 0
-130 -202 0
-131 -203 0
-132 -204 0
-133 -205 0
-134 -206 0
-135 -207 0
-136 -208 0
-129 -161 0
-130 -162 0
-131 -163 0
-132 -164 0
-133 -165 0
-134 -166 0
-135 -167 0
-136 -168 0
-129 -193 0
-130 -194 0
-131 -195 0
-132 -196 0
-133 -197 0
-134 -198 0
-135 -199 0
-136 -200 0
-129 -137 0
-130 -138 0
-131 -139 0
-132 -140 0
-133 -141 0
-134 -142 0
-135 -143 0
-136 -144 0
-137 -177 0
-138 -178 0
-139 -179 0
-140 -180 0
-141 -181 0
-142 -182 0
-143 -183 0
-144 -184 0
-137 -153 0
-138 -154 0
-139 -155 0
-140 -156 0
-141 -157 0
-142 -158 0
-143 -159 0
-144 -160 0
-137 -193 0
-138 -194 0
-139 -195 0
-140 -196 0
-141 -197 0
-142 -198 0
-143 -199 0
-144 -200 0
-137 -225 0
-138 -226 0
-139 -227 0
-140 -228 0
-141 -229 0
-142 -230 0
-143 -231 0
-144 -232 0
-137 -145 0
-138 -146 0
-139 -147 0
-140 -148 0
-141 -149 0
-142 -150 0
-143 -151 0
-144 -152 0
-145 -217 0
-146 -218 0
-147 -219 0
-148 -220 0
-149 -221 0
-150 -222 0
-151 -223 0
-152 -224 0
-145 -153 0
-146 -154 0
-147 -155 0
-148 -156 0
-149 -157 0
-150 -158 0
-151 -159 0
-152 -160 0
-145 -201 0
-146 -202 0
-147 -203 0
-148 -204 0
-149 -205 0
-150 -206 0
-151 -207 0
-152 -208 0
-145 -161 0
-146 -162 0
-147 -163 0
-148 -164 0
-149 -165 0
-150 -166 0
-151 -167 0
-152 -168 0
-145 -209 0
-146 -210 0
-147 -211 0
-148 -212 0
-149 -213 0
-150 -214 0
-151 -215 0
-152 -216 0
-145 -225 0
-146 -226 0
-147 -227 0
-148 -228 0
-149 -229 0
-150 -230 0
-151 -231 0
-152 -232 0
-153 -177 0
-154 -178 0
-155 -179 0
-156 -180 0
-157 -181 0
-158 -182 0
-159 -183 0
-160 -184 0
-153 -217 0
-154 -218 0
-155 -219 0
-156 -220 0
-157 -221 0
-158 -222 0
-159 -223 0
-160 -224 0
-153 -225 0
-154 -226 0
-155 -227 0
-156 -228 0
-157 -229 0
-158 -230 0
-159 -231 0
-160 -232 0
-161 -169 0
-162 -170 0
-163 -171 0
-164 -172 0
-165 -173 0
-166 -174 0
-167 -175 0
-168 -176 0
-161 -185 0
-162 -186 0
-163 -187 0
-164 -188 0
-165 -189 0
-166 -190 0
-167 -191 0
-168 -192 0
-161 -201 0
-162 -202 0
-163 -203 0
-164 -204 0
-165 -205 0
-166 -206 0
-167 -207 0
-168 -208 0
-161 -209 0
-162 -210 0
-163 -211 0
-164 -212 0
-165 -213 0
-166 -214 0
-167 -215 0
-168 -216 0
-161 -225 0
-162 -226 0
-163 -227 0
-164 -228 0
-165 -229 0
-166 -230 0
-167 -231 0
-168 -232 0
-169 -185 0
-170 -186 0
-171 -187 0
-172 -188 0
-173 -189 0
-174 -190 0
-175 -191 0
-176 -192 0
-169 -201 0
-170 -202 0
-171 -203 0
-172 -204 0
-173 -205 0
-174 -206 0
-175 -207 0
-176 -208 0
-169 -177 0
-170 -178 0
-171 -179 0
-172 -180 0
-173 -181 0
-174 -182 0
-175 -183 0
-176 -184 0
-169 -209 0
-170 -210 0
-171 -211 0
-172 -212 0
-173 -213 0
-174 -214 0
-175 -215 0
-176 -216 0
-177 -185 0
-178 -186 0
-179 -187 0
-180 -188 0
-181 -189 0
-182 -190 0
-183 -191 0
-184 -192 0
-177 -217 0
-178 -218 0
-179 -219 0
-180 -220 0
-181 -221 0
-182 -222 0
-183 -223 0
-184 -224 0
-177 -193 0
-178 -194 0
-179 -195 0
-180 -196 0
-181 -197 0
-182 -198 0
-183 -199 0
-184 -200 0
-185 -201 0
-186 -202 0
-187 -203 0
-188 -204 0
-189 -205 0
-190 -206 0
-191 -207 0
-192 -208 0
-185 -209 0
-186 -210 0
-187 -211 0
-188 -212 0
-189 -213 0
-190 -214 0
-191 -215 0
-192 -216 0
-185 -217 0
-186 -218 0
-187 -219 0
-188 -220 0
-189 -221 0
-190 -222 0
-191 -223 0
-192 -224 0
-193 -225 0
-194 -226 0
-195 -227 0
-196 -228 0
-197 -229 0
-198 -230 0
-199 -231 0
-200 -232 0
-201 -209 0
-202 -210 0
-203 -211 0
-204 -212 0
-205 -213 0
-206 -214 0
-207 -215 0
-208 -216 0
-209 -217 0
-210 -218 0
-211 -219 0
-212 -220 0
-213 -221 0
-214 -222 0
-215 -223 0
-216 -224 0
-217 -225 0
-218 -226 0
-219 -227 0
-220 -228 0
-221 -229 0
-222 -230 0
-223 -231 0
-224 -232 0
1 2 3 4 5 6 7 8 0
9 10 11 12 13 14 15 16 0
17 18 19 20 21 22 23 24 0
25 26 27 28 29 30 31 32 0
33 34 35 36 37 38 39 40 0
41 42 43 44 45 46 47 48 0
49 50 51 52 53 54 55 56 0
57 58 59 60 61 62 63 64 0
65 66 67 68 69 70 71 72 0
73 74 75 76 77 78 79 80 0
81 82 83 84 85 86 87 88 0
89 90 91 92 93 94 95 96 0
97 98 99 100 101 102 103 104 0
105 106 107 108 109 110 111 112 0
113 114 115 116 117 118 119 120 0
121 122 123 124 125 126 127 128 0
129 130 131 132 133 134 135 136 0
137 138 139 140 141 142 143 144 0
145 146 147 148 149 150 151 152 0
153 154 155 156 157 158 159 160 0
161 162 163 164 165 166 167 168 0
169 170 171 172 173 174 175 176 0
177 178 179 180 181 182 183 184 0
185 186 187 188 189 190 191 192 0
193 194 195 196 197 198 199 200 0
201 202 203 204 205 206 207 208 0
209 210 211 212 213 214 215 216 0
217 218 219 220 221 222 223 224 0
225 226 227 228 229 230 231 232 0
